12
-1 9 58 21 88 22 46 6 30 13 68 91
62 -1 10 59 24 37 48 83 95 41 2 50
91 36 -1 20 96 21 48 99 68 84 81 34
53 99 18 -1 88 27 67 28 93 48 83 7
21 10 17 13 -1 9 16 35 51 49 19 56
98 3 24 8 44 -1 89 2 95 85 93 43
23 87 14 3 48 58 -1 80 96 98 81 89
98 9 57 72 22 38 92 -1 79 90 57 58
91 15 88 56 11 2 34 72 -1 28 46 62
86 75 33 69 42 44 16 81 98 -1 51 21
99 57 76 92 89 75 12 10 3 69 -1 88
1 89 55 23 2 85 82 85 88 26 17 -1